c colouring generated by benchmark framework
p edge 47 236
v 1 2
v 2 1
v 3 1
v 4 2
v 5 3
v 6 2
v 7 3
v 8 3
v 9 2
v 10 1
v 11 4
v 12 4
v 13 3
v 14 4
v 15 4
v 16 3
v 17 6
v 18 3
v 19 3
v 20 6
v 21 4
v 22 1
v 23 5
v 24 2
v 25 3
v 26 5
v 27 2
v 28 3
v 29 2
v 30 3
v 31 3
v 32 2
v 33 4
v 34 4
v 35 2
v 36 3
v 37 4
v 38 2
v 39 3
v 40 2
v 41 3
v 42 3
v 43 2
v 44 4
v 45 2
v 46 1
v 47 1
